NAME : C1_4_1
TYPE : VRPSPD
DIMENSION : 401
VEHICLES : 63
CAPACITY : 200
DISTANCE : 999999
SCALE : 1000
EDGE_WEIGHT_TYPE : EXACT_2D
NODE_COORD_SECTION
1 100 100
2 181 172
3 154 31
4 123 106
5 23 137
6 190 28
7 8 71
8 103 130
9 62 50
10 89 161
11 117 91
12 12 156
13 88 165
14 107 125
15 8 74
16 105 125
17 118 192
18 146 11
19 93 13
20 188 125
21 87 117
22 123 31
23 121 189
24 174 128
25 197 80
26 151 165
27 140 4
28 78 184
29 96 150
30 96 147
31 149 182
32 87 191
33 189 151
34 99 144
35 64 52
36 7 151
37 151 99
38 87 118
39 179 141
40 192 151
41 143 0
42 66 58
43 122 14
44 66 52
45 173 55
46 119 37
47 199 28
48 90 161
49 36 193
50 159 160
51 194 112
52 176 173
53 117 193
54 186 96
55 39 56
56 189 120
57 29 139
58 37 190
59 165 117
60 16 84
61 187 97
62 10 153
63 194 149
64 187 112
65 103 70
66 193 159
67 77 115
68 190 154
69 3 75
70 17 93
71 151 167
72 12 85
73 120 11
74 140 181
75 6 67
76 137 4
77 103 124
78 10 67
79 48 30
80 53 67
81 164 113
82 47 49
83 187 92
84 121 115
85 46 51
86 144 189
87 180 93
88 152 168
89 117 95
90 195 25
91 108 168
92 149 103
93 60 58
94 197 79
95 39 58
96 147 186
97 154 163
98 96 128
99 30 187
100 123 121
101 104 68
102 102 128
103 18 89
104 197 77
105 156 11
106 144 33
107 101 67
108 159 121
109 84 192
110 139 7
111 7 152
112 181 147
113 104 170
114 13 81
115 172 57
116 80 108
117 180 171
118 146 3
119 123 33
120 127 8
121 185 115
122 192 113
123 194 75
124 135 0
125 157 30
126 53 29
127 85 110
128 182 171
129 79 193
130 181 52
131 148 103
132 190 109
133 119 188
134 197 140
135 162 123
136 102 170
137 120 198
138 175 50
139 23 142
140 149 99
141 102 174
142 30 142
143 175 143
144 193 27
145 193 82
146 103 67
147 55 64
148 197 25
149 42 105
150 100 129
151 120 115
152 183 120
153 115 89
154 196 27
155 131 38
156 145 31
157 196 137
158 98 150
159 159 8
160 15 88
161 191 27
162 196 111
163 150 6
164 95 74
165 42 101
166 53 59
167 193 23
168 40 105
169 152 4
170 100 151
171 24 140
172 87 195
173 140 6
174 197 113
175 40 183
176 127 114
177 182 46
178 151 190
179 8 69
180 44 52
181 43 54
182 179 174
183 13 152
184 137 1
185 127 118
186 118 92
187 129 40
188 123 4
189 55 24
190 41 182
191 22 133
192 151 101
193 82 194
194 185 124
195 180 147
196 97 7
197 108 165
198 47 50
199 93 167
200 186 91
201 124 6
202 149 167
203 125 38
204 123 8
205 199 76
206 194 129
207 124 117
208 115 4
209 105 70
210 120 92
211 200 136
212 14 84
213 100 150
214 190 112
215 146 7
216 196 28
217 100 6
218 118 97
219 12 154
220 97 162
221 196 78
222 172 114
223 14 92
224 7 142
225 63 55
226 54 30
227 141 8
228 156 12
229 134 6
230 198 78
231 65 53
232 52 28
233 125 15
234 199 115
235 32 178
236 179 55
237 11 151
238 99 154
239 95 16
240 83 197
241 27 135
242 102 121
243 179 165
244 87 196
245 38 190
246 183 167
247 46 49
248 149 5
249 84 194
250 93 150
251 35 186
252 177 146
253 26 147
254 21 85
255 195 97
256 99 146
257 195 129
258 105 127
259 190 24
260 178 165
261 68 50
262 190 110
263 60 51
264 180 50
265 181 151
266 143 189
267 56 59
268 48 108
269 50 67
270 101 70
271 185 123
272 38 188
273 151 28
274 121 8
275 25 143
276 26 138
277 176 144
278 78 119
279 51 31
280 109 175
281 150 98
282 180 52
283 141 4
284 152 3
285 166 117
286 93 7
287 113 94
288 83 188
289 8 73
290 154 2
291 17 150
292 116 189
293 140 11
294 189 97
295 184 116
296 198 76
297 186 94
298 97 65
299 154 172
300 90 160
301 109 126
302 148 98
303 144 170
304 193 83
305 15 87
306 89 158
307 153 29
308 183 152
309 53 61
310 123 36
311 59 57
312 102 122
313 45 48
314 185 96
315 120 192
316 165 113
317 177 145
318 126 192
319 103 66
320 69 47
321 150 3
322 110 164
323 178 123
324 53 31
325 193 131
326 83 118
327 145 9
328 12 69
329 145 189
330 97 67
331 193 28
332 79 115
333 63 58
334 187 142
335 99 12
336 181 89
337 111 93
338 192 28
339 198 132
340 57 54
341 39 112
342 118 5
343 122 37
344 100 70
345 150 103
346 28 193
347 121 36
348 152 31
349 175 57
350 149 101
351 140 3
352 165 116
353 143 5
354 153 160
355 121 116
356 147 6
357 162 118
358 12 66
359 98 4
360 189 95
361 91 160
362 147 26
363 85 192
364 178 147
365 40 113
366 122 8
367 119 113
368 45 104
369 84 118
370 8 154
371 25 146
372 178 140
373 146 103
374 40 108
375 183 148
376 99 128
377 151 35
378 154 27
379 42 102
380 45 46
381 144 190
382 129 38
383 199 132
384 193 111
385 172 51
386 188 88
387 40 49
388 52 38
389 178 54
390 181 175
391 41 187
392 49 104
393 150 99
394 106 166
395 5 73
396 148 32
397 182 154
398 116 12
399 78 115
400 121 188
401 61 50
PICKUP_AND_DELIVERY_SECTION
1 0 0 10000000 0 0 0
2 0 0 10000000 0 40 10
3 0 0 10000000 0 20 10
4 0 0 10000000 0 40 20
5 0 0 10000000 0 20 20
6 0 0 10000000 0 20 20
7 0 0 10000000 0 50 10
8 0 0 10000000 0 20 20
9 0 0 10000000 0 10 20
10 0 0 10000000 0 40 10
11 0 0 10000000 0 50 20
12 0 0 10000000 0 50 30
13 0 0 10000000 0 40 30
14 0 0 10000000 0 10 10
15 0 0 10000000 0 20 20
16 0 0 10000000 0 20 10
17 0 0 10000000 0 30 30
18 0 0 10000000 0 40 10
19 0 0 10000000 0 50 30
20 0 0 10000000 0 10 10
21 0 0 10000000 0 20 10
22 0 0 10000000 0 50 20
23 0 0 10000000 0 20 20
24 0 0 10000000 0 20 20
25 0 0 10000000 0 50 10
26 0 0 10000000 0 10 10
27 0 0 10000000 0 50 10
28 0 0 10000000 0 30 20
29 0 0 10000000 0 20 20
30 0 0 10000000 0 30 10
31 0 0 10000000 0 50 20
32 0 0 10000000 0 20 10
33 0 0 10000000 0 40 30
34 0 0 10000000 0 30 10
35 0 0 10000000 0 50 20
36 0 0 10000000 0 30 20
37 0 0 10000000 0 50 10
38 0 0 10000000 0 20 10
39 0 0 10000000 0 20 20
40 0 0 10000000 0 40 10
41 0 0 10000000 0 40 10
42 0 0 10000000 0 30 20
43 0 0 10000000 0 10 20
44 0 0 10000000 0 50 10
45 0 0 10000000 0 50 20
46 0 0 10000000 0 10 20
47 0 0 10000000 0 40 20
48 0 0 10000000 0 20 10
49 0 0 10000000 0 20 20
50 0 0 10000000 0 10 20
51 0 0 10000000 0 20 10
52 0 0 10000000 0 10 20
53 0 0 10000000 0 30 30
54 0 0 10000000 0 40 20
55 0 0 10000000 0 20 10
56 0 0 10000000 0 10 10
57 0 0 10000000 0 20 10
58 0 0 10000000 0 20 10
59 0 0 10000000 0 40 10
60 0 0 10000000 0 50 20
61 0 0 10000000 0 30 10
62 0 0 10000000 0 10 20
63 0 0 10000000 0 40 20
64 0 0 10000000 0 30 30
65 0 0 10000000 0 10 10
66 0 0 10000000 0 40 20
67 0 0 10000000 0 20 20
68 0 0 10000000 0 30 30
69 0 0 10000000 0 50 10
70 0 0 10000000 0 20 20
71 0 0 10000000 0 20 10
72 0 0 10000000 0 30 10
73 0 0 10000000 0 40 10
74 0 0 10000000 0 30 20
75 0 0 10000000 0 50 10
76 0 0 10000000 0 40 10
77 0 0 10000000 0 40 20
78 0 0 10000000 0 40 30
79 0 0 10000000 0 40 50
80 0 0 10000000 0 50 20
81 0 0 10000000 0 20 20
82 0 0 10000000 0 50 20
83 0 0 10000000 0 40 20
84 0 0 10000000 0 20 20
85 0 0 10000000 0 30 20
86 0 0 10000000 0 30 30
87 0 0 10000000 0 30 10
88 0 0 10000000 0 30 20
89 0 0 10000000 0 30 10
90 0 0 10000000 0 40 10
91 0 0 10000000 0 50 20
92 0 0 10000000 0 50 20
93 0 0 10000000 0 30 20
94 0 0 10000000 0 10 10
95 0 0 10000000 0 10 30
96 0 0 10000000 0 20 30
97 0 0 10000000 0 30 10
98 0 0 10000000 0 10 30
99 0 0 10000000 0 30 10
100 0 0 10000000 0 40 20
101 0 0 10000000 0 40 10
102 0 0 10000000 0 40 20
103 0 0 10000000 0 50 10
104 0 0 10000000 0 20 20
105 0 0 10000000 0 20 20
106 0 0 10000000 0 40 30
107 0 0 10000000 0 40 20
108 0 0 10000000 0 10 20
109 0 0 10000000 0 10 10
110 0 0 10000000 0 10 20
111 0 0 10000000 0 50 10
112 0 0 10000000 0 10 20
113 0 0 10000000 0 20 20
114 0 0 10000000 0 10 30
115 0 0 10000000 0 50 10
116 0 0 10000000 0 40 20
117 0 0 10000000 0 50 20
118 0 0 10000000 0 20 10
119 0 0 10000000 0 30 20
120 0 0 10000000 0 50 20
121 0 0 10000000 0 30 20
122 0 0 10000000 0 50 20
123 0 0 10000000 0 50 10
124 0 0 10000000 0 20 10
125 0 0 10000000 0 50 10
126 0 0 10000000 0 30 30
127 0 0 10000000 0 10 10
128 0 0 10000000 0 50 30
129 0 0 10000000 0 40 30
130 0 0 10000000 0 10 10
131 0 0 10000000 0 30 30
132 0 0 10000000 0 40 10
133 0 0 10000000 0 20 20
134 0 0 10000000 0 10 10
135 0 0 10000000 0 40 40
136 0 0 10000000 0 40 40
137 0 0 10000000 0 10 10
138 0 0 10000000 0 20 20
139 0 0 10000000 0 30 10
140 0 0 10000000 0 40 20
141 0 0 10000000 0 30 20
142 0 0 10000000 0 50 10
143 0 0 10000000 0 30 20
144 0 0 10000000 0 50 10
145 0 0 10000000 0 40 10
146 0 0 10000000 0 20 20
147 0 0 10000000 0 40 30
148 0 0 10000000 0 30 10
149 0 0 10000000 0 30 20
150 0 0 10000000 0 50 30
151 0 0 10000000 0 30 20
152 0 0 10000000 0 50 10
153 0 0 10000000 0 50 20
154 0 0 10000000 0 10 10
155 0 0 10000000 0 40 20
156 0 0 10000000 0 50 20
157 0 0 10000000 0 40 20
158 0 0 10000000 0 20 10
159 0 0 10000000 0 30 10
160 0 0 10000000 0 40 10
161 0 0 10000000 0 10 10
162 0 0 10000000 0 50 30
163 0 0 10000000 0 10 20
164 0 0 10000000 0 30 20
165 0 0 10000000 0 20 10
166 0 0 10000000 0 50 20
167 0 0 10000000 0 30 20
168 0 0 10000000 0 20 10
169 0 0 10000000 0 50 20
170 0 0 10000000 0 20 10
171 0 0 10000000 0 40 20
172 0 0 10000000 0 50 10
173 0 0 10000000 0 30 30
174 0 0 10000000 0 40 20
175 0 0 10000000 0 50 20
176 0 0 10000000 0 40 20
177 0 0 10000000 0 50 10
178 0 0 10000000 0 10 40
179 0 0 10000000 0 50 20
180 0 0 10000000 0 50 20
181 0 0 10000000 0 50 10
182 0 0 10000000 0 50 10
183 0 0 10000000 0 40 20
184 0 0 10000000 0 50 10
185 0 0 10000000 0 40 20
186 0 0 10000000 0 20 30
187 0 0 10000000 0 30 20
188 0 0 10000000 0 50 10
189 0 0 10000000 0 20 10
190 0 0 10000000 0 20 30
191 0 0 10000000 0 50 10
192 0 0 10000000 0 40 20
193 0 0 10000000 0 10 10
194 0 0 10000000 0 50 10
195 0 0 10000000 0 50 10
196 0 0 10000000 0 30 20
197 0 0 10000000 0 20 10
198 0 0 10000000 0 50 10
199 0 0 10000000 0 20 40
200 0 0 10000000 0 30 10
201 0 0 10000000 0 50 20
202 0 0 10000000 0 50 40
203 0 0 10000000 0 20 30
204 0 0 10000000 0 30 10
205 0 0 10000000 0 10 30
206 0 0 10000000 0 50 20
207 0 0 10000000 0 50 30
208 0 0 10000000 0 50 20
209 0 0 10000000 0 10 10
210 0 0 10000000 0 30 20
211 0 0 10000000 0 10 20
212 0 0 10000000 0 40 20
213 0 0 10000000 0 40 10
214 0 0 10000000 0 20 20
215 0 0 10000000 0 10 10
216 0 0 10000000 0 30 20
217 0 0 10000000 0 50 30
218 0 0 10000000 0 50 20
219 0 0 10000000 0 50 10
220 0 0 10000000 0 30 10
221 0 0 10000000 0 30 30
222 0 0 10000000 0 30 20
223 0 0 10000000 0 10 30
224 0 0 10000000 0 30 20
225 0 0 10000000 0 20 10
226 0 0 10000000 0 50 10
227 0 0 10000000 0 20 20
228 0 0 10000000 0 40 20
229 0 0 10000000 0 50 20
230 0 0 10000000 0 10 20
231 0 0 10000000 0 20 10
232 0 0 10000000 0 50 10
233 0 0 10000000 0 30 10
234 0 0 10000000 0 40 20
235 0 0 10000000 0 50 10
236 0 0 10000000 0 40 30
237 0 0 10000000 0 50 20
238 0 0 10000000 0 30 10
239 0 0 10000000 0 20 20
240 0 0 10000000 0 50 20
241 0 0 10000000 0 20 10
242 0 0 10000000 0 20 10
243 0 0 10000000 0 20 20
244 0 0 10000000 0 50 30
245 0 0 10000000 0 10 10
246 0 0 10000000 0 30 10
247 0 0 10000000 0 20 20
248 0 0 10000000 0 10 10
249 0 0 10000000 0 40 10
250 0 0 10000000 0 40 10
251 0 0 10000000 0 40 10
252 0 0 10000000 0 30 10
253 0 0 10000000 0 20 20
254 0 0 10000000 0 40 20
255 0 0 10000000 0 50 20
256 0 0 10000000 0 50 10
257 0 0 10000000 0 10 40
258 0 0 10000000 0 50 10
259 0 0 10000000 0 50 20
260 0 0 10000000 0 30 30
261 0 0 10000000 0 20 10
262 0 0 10000000 0 30 20
263 0 0 10000000 0 10 20
264 0 0 10000000 0 50 20
265 0 0 10000000 0 20 10
266 0 0 10000000 0 30 10
267 0 0 10000000 0 20 30
268 0 0 10000000 0 30 20
269 0 0 10000000 0 50 10
270 0 0 10000000 0 20 20
271 0 0 10000000 0 20 30
272 0 0 10000000 0 40 20
273 0 0 10000000 0 30 20
274 0 0 10000000 0 10 10
275 0 0 10000000 0 10 20
276 0 0 10000000 0 20 10
277 0 0 10000000 0 30 20
278 0 0 10000000 0 20 30
279 0 0 10000000 0 50 20
280 0 0 10000000 0 40 20
281 0 0 10000000 0 30 10
282 0 0 10000000 0 10 10
283 0 0 10000000 0 20 20
284 0 0 10000000 0 30 20
285 0 0 10000000 0 40 20
286 0 0 10000000 0 40 20
287 0 0 10000000 0 30 30
288 0 0 10000000 0 20 30
289 0 0 10000000 0 30 20
290 0 0 10000000 0 10 20
291 0 0 10000000 0 30 20
292 0 0 10000000 0 50 30
293 0 0 10000000 0 40 10
294 0 0 10000000 0 40 20
295 0 0 10000000 0 30 20
296 0 0 10000000 0 10 10
297 0 0 10000000 0 40 20
298 0 0 10000000 0 40 20
299 0 0 10000000 0 20 30
300 0 0 10000000 0 30 20
301 0 0 10000000 0 10 10
302 0 0 10000000 0 10 20
303 0 0 10000000 0 20 10
304 0 0 10000000 0 10 20
305 0 0 10000000 0 30 20
306 0 0 10000000 0 30 30
307 0 0 10000000 0 40 20
308 0 0 10000000 0 20 30
309 0 0 10000000 0 10 20
310 0 0 10000000 0 10 10
311 0 0 10000000 0 50 10
312 0 0 10000000 0 10 10
313 0 0 10000000 0 40 10
314 0 0 10000000 0 20 30
315 0 0 10000000 0 20 10
316 0 0 10000000 0 30 10
317 0 0 10000000 0 20 10
318 0 0 10000000 0 10 10
319 0 0 10000000 0 50 20
320 0 0 10000000 0 10 10
321 0 0 10000000 0 30 10
322 0 0 10000000 0 40 20
323 0 0 10000000 0 20 30
324 0 0 10000000 0 30 10
325 0 0 10000000 0 20 20
326 0 0 10000000 0 40 20
327 0 0 10000000 0 50 10
328 0 0 10000000 0 10 10
329 0 0 10000000 0 50 30
330 0 0 10000000 0 50 10
331 0 0 10000000 0 40 20
332 0 0 10000000 0 40 30
333 0 0 10000000 0 30 20
334 0 0 10000000 0 40 10
335 0 0 10000000 0 10 30
336 0 0 10000000 0 50 10
337 0 0 10000000 0 30 10
338 0 0 10000000 0 40 30
339 0 0 10000000 0 40 10
340 0 0 10000000 0 50 20
341 0 0 10000000 0 10 20
342 0 0 10000000 0 30 20
343 0 0 10000000 0 20 30
344 0 0 10000000 0 10 30
345 0 0 10000000 0 50 20
346 0 0 10000000 0 40 30
347 0 0 10000000 0 40 20
348 0 0 10000000 0 10 10
349 0 0 10000000 0 40 30
350 0 0 10000000 0 50 20
351 0 0 10000000 0 20 10
352 0 0 10000000 0 30 10
353 0 0 10000000 0 10 10
354 0 0 10000000 0 20 40
355 0 0 10000000 0 20 10
356 0 0 10000000 0 50 10
357 0 0 10000000 0 10 20
358 0 0 10000000 0 10 20
359 0 0 10000000 0 20 20
360 0 0 10000000 0 10 10
361 0 0 10000000 0 30 30
362 0 0 10000000 0 50 30
363 0 0 10000000 0 10 10
364 0 0 10000000 0 10 10
365 0 0 10000000 0 50 10
366 0 0 10000000 0 30 20
367 0 0 10000000 0 40 30
368 0 0 10000000 0 50 20
369 0 0 10000000 0 10 20
370 0 0 10000000 0 10 20
371 0 0 10000000 0 10 30
372 0 0 10000000 0 20 10
373 0 0 10000000 0 20 10
374 0 0 10000000 0 10 30
375 0 0 10000000 0 50 10
376 0 0 10000000 0 20 20
377 0 0 10000000 0 50 20
378 0 0 10000000 0 20 20
379 0 0 10000000 0 40 30
380 0 0 10000000 0 40 20
381 0 0 10000000 0 30 10
382 0 0 10000000 0 30 10
383 0 0 10000000 0 40 10
384 0 0 10000000 0 20 20
385 0 0 10000000 0 20 10
386 0 0 10000000 0 40 20
387 0 0 10000000 0 50 20
388 0 0 10000000 0 20 30
389 0 0 10000000 0 20 20
390 0 0 10000000 0 40 30
391 0 0 10000000 0 20 20
392 0 0 10000000 0 40 30
393 0 0 10000000 0 50 20
394 0 0 10000000 0 40 10
395 0 0 10000000 0 40 10
396 0 0 10000000 0 30 10
397 0 0 10000000 0 50 10
398 0 0 10000000 0 30 20
399 0 0 10000000 0 20 10
400 0 0 10000000 0 50 20
401 0 0 10000000 0 30 10
DEPOT_SECTION
1 
-1
EOF
